33D32945 STP File, STP Format Version 1.0

SECTION Comments
Name  	"W1_all"
Creator	"Daisy Jørgensen"
Problem	"3-dimensional Geometric Steiner Minimum Tree"
Remark	"Converted automatically."
END

SECTION Graph
Nodes 862
END

SECTION Coordinates
DDD 1 -17.96 10.35 3.26
DDD 2 -18.20 10.45 4.69
DDD 3 -18.46 9.08 5.31
DDD 4 -19.43 8.43 4.94
DDD 5 -19.38 11.38 4.97
DDD 6 -19.05 12.86 4.87
DDD 7 -19.08 13.46 3.17
DDD 8 -17.35 13.36 2.74
DDD 9 -17.40 10.86 5.14
DDD 10 -19.71 11.20 5.90
DDD 11 -20.11 11.18 4.32
DDD 12 -18.13 13.04 5.22
DDD 13 -19.71 13.41 5.38
DDD 14 -16.82 14.00 3.30
DDD 15 -17.02 12.43 2.90
DDD 16 -17.23 13.58 1.77
DDD 17 -18.67 9.78 2.84
DDD 18 -17.99 11.26 2.85
DDD 19 -17.06 9.94 3.10
DDD 20 -17.59 8.68 6.23
DDD 21 -17.72 7.39 6.90
DDD 22 -17.54 7.53 8.41
DDD 23 -16.57 8.15 8.85
DDD 24 -16.71 6.39 6.34
DDD 25 -16.20 6.73 4.95
DDD 26 -17.28 6.59 3.89
DDD 27 -17.91 7.58 3.51
DDD 28 -17.48 5.37 3.41
DDD 29 -16.82 9.26 6.49
DDD 30 -18.63 7.02 6.72
DDD 31 -17.14 5.49 6.31
DDD 32 -15.93 6.36 6.97
DDD 33 -15.45 6.12 4.73
DDD 34 -15.87 7.68 4.95
DDD 35 -18.36 4.92 3.57
DDD 36 -16.76 4.91 2.90
DDD 37 -18.48 6.96 9.17
DDD 38 -18.42 7.02 10.62
DDD 39 -18.14 5.65 11.22
DDD 40 -18.42 4.64 10.58
DDD 41 -19.73 7.57 11.19
DDD 42 -20.30 8.73 10.40
DDD 43 -20.32 10.01 10.93
DDD 44 -20.81 8.54 9.12
DDD 45 -20.84 11.08 10.22
DDD 46 -21.33 9.59 8.39
DDD 47 -21.34 10.87 8.95
DDD 48 -21.86 11.93 8.24
DDD 49 -19.24 6.48 8.75
DDD 50 -17.69 7.65 10.90
DDD 51 -19.56 7.88 12.12
DDD 52 -20.41 6.83 11.19
DDD 53 -19.95 10.17 11.85
DDD 54 -20.80 7.62 8.72
DDD 55 -20.84 11.99 10.62
DDD 56 -21.70 9.44 7.47
DDD 57 -22.29 12.57 8.87
DDD 58 -17.58 5.64 12.43
DDD 59 -17.25 4.39 13.11
DDD 60 -18.33 4.03 14.13
DDD 61 -18.51 4.76 15.10
DDD 62 -15.89 4.49 13.80
DDD 63 -14.73 4.74 12.84
DDD 64 -15.01 5.93 11.94
DDD 65 -13.73 6.43 11.29
DDD 66 -13.10 5.40 10.42
DDD 67 -17.37 6.49 12.90
DDD 68 -17.19 3.65 12.44
DDD 69 -15.72 3.64 14.28
DDD 70 -15.93 5.25 14.45
DDD 71 -14.60 3.92 12.28
DDD 72 -13.90 4.92 13.37
DDD 73 -15.41 6.67 12.48
DDD 74 -15.65 5.65 11.22
DDD 75 -13.08 6.69 12.01
DDD 76 -13.94 7.24 10.73
DDD 77 -12.58 5.85 9.70
DDD 78 -12.48 4.83 10.97
DDD 79 -13.81 4.83 10.02
DDD 80 -19.01 2.91 13.90
DDD 81 -20.06 2.45 14.80
DDD 82 -19.50 1.50 15.85
DDD 83 -18.51 0.82 15.59
DDD 84 -21.17 1.76 14.01
DDD 85 -22.37 2.63 13.64
DDD 86 -23.04 2.11 12.37
DDD 87 -23.41 2.64 14.75
DDD 88 -18.81 2.35 13.09
DDD 89 -20.47 3.24 15.26
DDD 90 -21.51 1.00 14.57
DDD 91 -20.78 1.41 13.17
DDD 92 -22.06 3.57 13.48
DDD 93 -24.04 2.18 12.47
DDD 94 -22.74 2.65 11.59
DDD 95 -22.79 1.15 12.23
DDD 96 -22.94 2.68 15.64
DDD 97 -24.01 3.43 14.65
DDD 98 -23.95 1.80 14.71
DDD 99 -20.15 1.47 17.01
DDD 100 -19.72 0.60 18.10
DDD 101 -20.34 -0.79 17.98
DDD 102 -21.56 -0.90 17.85
DDD 103 -20.09 1.22 19.46
DDD 104 -19.49 0.41 20.60
DDD 105 -19.56 2.64 19.56
DDD 106 -20.96 2.04 17.16
DDD 107 -18.73 0.51 18.09
DDD 108 -21.09 1.24 19.56
DDD 109 -19.00 1.02 21.22
DDD 110 -20.23 -0.06 21.10
DDD 111 -18.86 -0.27 20.23
DDD 112 -20.25 3.22 20.01
DDD 113 -18.72 2.65 20.09
DDD 114 -19.38 2.99 18.64
DDD 115 -19.50 -1.81 18.03
DDD 116 -19.96 -3.19 17.92
DDD 117 -19.31 -4.08 18.98
DDD 118 -18.09 -4.21 18.99
DDD 119 -19.67 -3.76 16.52
DDD 120 -20.43 -2.95 15.46
DDD 121 -20.11 -5.21 16.43
DDD 122 -21.92 -3.19 15.46
DDD 123 -18.52 -1.66 18.14
DDD 124 -20.95 -3.22 18.05
DDD 125 -18.69 -3.70 16.34
DDD 126 -20.07 -3.21 14.56
DDD 127 -20.26 -1.98 15.62
DDD 128 -20.04 -5.52 15.48
DDD 129 -19.52 -5.77 17.01
DDD 130 -21.06 -5.29 16.73
DDD 131 -22.17 -3.77 14.69
DDD 132 -22.19 -3.63 16.32
DDD 133 -22.40 -2.31 15.38
DDD 134 -20.13 -4.66 19.85
DDD 135 -19.64 -5.53 20.91
DDD 136 -20.03 -6.98 20.66
DDD 137 -21.19 -7.25 20.33
DDD 138 -20.17 -5.07 22.27
DDD 139 -19.20 -4.15 22.99
DDD 140 -18.04 -4.03 22.60
DDD 141 -19.68 -3.50 24.04
DDD 142 -21.12 -4.52 19.79
DDD 143 -18.64 -5.47 20.95
DDD 144 -20.33 -5.88 22.83
DDD 145 -21.03 -4.59 22.13
DDD 146 -19.09 -2.86 24.55
DDD 147 -20.62 -3.65 24.34
DDD 148 -19.07 -7.89 20.82
DDD 149 -19.34 -9.30 20.60
DDD 150 -18.85 -10.16 21.75
DDD 151 -18.02 -9.71 22.54
DDD 152 -18.14 -7.62 21.09
DDD 153 -18.88 -9.60 19.77
DDD 154 -20.32 -9.43 20.51
DDD 155 -19.36 -11.38 21.83
DDD 156 -18.97 -12.31 22.88
DDD 157 -17.45 -12.47 22.94
DDD 158 -16.90 -12.65 24.03
DDD 159 -19.63 -13.68 22.67
DDD 160 -21.10 -13.60 22.32
DDD 161 -21.60 -14.92 21.76
DDD 162 -23.11 -14.90 21.54
DDD 163 -23.85 -15.21 22.79
DDD 164 -20.03 -11.70 21.16
DDD 165 -19.29 -11.97 23.77
DDD 166 -19.53 -14.21 23.51
DDD 167 -19.15 -14.14 21.93
DDD 168 -21.24 -12.88 21.64
DDD 169 -21.62 -13.38 23.15
DDD 170 -21.38 -15.66 22.40
DDD 171 -21.15 -15.10 20.89
DDD 172 -23.34 -15.57 20.84
DDD 173 -23.37 -13.98 21.23
DDD 174 -23.86 -16.20 22.94
DDD 175 -23.41 -14.76 23.57
DDD 176 -24.80 -14.89 22.71
DDD 177 -16.81 -12.41 21.78
DDD 178 -15.36 -12.54 21.70
DDD 179 -14.66 -11.22 21.98
DDD 180 -13.95 -11.11 22.98
DDD 181 -14.94 -13.07 20.32
DDD 182 -15.77 -12.48 19.31
DDD 183 -15.09 -14.58 20.25
DDD 184 -17.31 -12.26 20.93
DDD 185 -15.05 -13.22 22.38
DDD 186 -13.98 -12.83 20.16
DDD 187 -15.54 -11.51 19.22
DDD 188 -16.05 -14.83 20.40
DDD 189 -14.80 -14.91 19.35
DDD 190 -14.53 -15.00 20.96
DDD 191 -14.88 -10.24 21.11
DDD 192 -14.27 -8.92 21.26
DDD 193 -14.87 -8.18 22.46
DDD 194 -16.09 -8.08 22.56
DDD 195 -14.46 -8.10 19.99
DDD 196 -13.67 -6.79 19.91
DDD 197 -14.17 -5.93 18.76
DDD 198 -13.81 -6.00 21.20
DDD 199 -15.47 -10.39 20.32
DDD 200 -13.29 -9.02 21.41
DDD 201 -15.43 -7.87 19.91
DDD 202 -14.19 -8.67 19.21
DDD 203 -12.70 -7.00 19.76
DDD 204 -14.11 -6.44 17.91
DDD 205 -15.12 -5.67 18.93
DDD 206 -13.61 -5.10 18.69
DDD 207 -13.65 -5.03 21.01
DDD 208 -14.73 -6.11 21.56
DDD 209 -13.14 -6.32 21.87
DDD 210 -13.99 -7.68 23.32
DDD 211 -14.43 -6.94 24.51
DDD 212 -14.12 -5.46 24.38
DDD 213 -13.03 -5.03 24.74
DDD 214 -13.76 -7.50 25.76
DDD 215 -14.22 -8.90 26.14
DDD 216 -13.54 -9.96 25.28
DDD 217 -12.17 -10.32 25.83
DDD 218 -11.26 -9.14 25.88
DDD 219 -13.01 -7.79 23.18
DDD 220 -15.41 -7.06 24.63
DDD 221 -13.96 -6.89 26.53
DDD 222 -12.77 -7.53 25.60
DDD 223 -15.21 -8.97 26.01
DDD 224 -13.99 -9.07 27.10
DDD 225 -13.43 -9.60 24.35
DDD 226 -14.11 -10.78 25.26
DDD 227 -11.76 -11.02 25.24
DDD 228 -12.28 -10.69 26.75
DDD 229 -11.41 -8.57 25.08
DDD 230 -11.45 -8.61 26.71
DDD 231 -10.31 -9.45 25.90
DDD 232 -15.09 -4.70 23.86
DDD 233 -14.91 -3.27 23.69
DDD 234 -14.36 -2.92 22.33
DDD 235 -14.84 -3.44 21.32
DDD 236 -15.96 -5.10 23.58
DDD 237 -14.26 -2.94 24.39
DDD 238 -15.78 -2.81 23.81
DDD 239 -13.37 -2.03 22.30
DDD 240 -12.75 -1.61 21.05
DDD 241 -11.26 -1.91 21.03
DDD 242 -10.60 -1.75 22.06
DDD 243 -12.99 -0.11 20.81
DDD 244 -13.97 0.20 19.69
DDD 245 -14.51 1.61 19.77
DDD 246 -15.54 1.82 20.45
DDD 247 -13.91 2.51 19.15
DDD 248 -13.01 -1.64 23.15
DDD 249 -13.18 -2.09 20.28
DDD 250 -12.11 0.31 20.59
DDD 251 -13.34 0.28 21.66
DDD 252 -14.73 -0.44 19.75
DDD 253 -13.50 0.08 18.82
DDD 254 -10.76 -2.34 19.88
DDD 255 -9.34 -2.66 19.73
DDD 256 -8.72 -1.90 18.56
DDD 257 -9.46 -1.35 17.74
DDD 258 -9.15 -4.17 19.52
DDD 259 -10.07 -4.64 18.52
DDD 260 -9.42 -4.92 20.82
DDD 261 -11.35 -2.45 19.08
DDD 262 -8.86 -2.41 20.57
DDD 263 -8.21 -4.34 19.24
DDD 264 -10.55 -3.86 18.12
DDD 265 -9.72 -4.28 21.52
DDD 266 -10.13 -5.61 20.67
DDD 267 -8.58 -5.37 21.12
DDD 268 -7.40 -1.87 18.52
DDD 269 -6.68 -1.18 17.46
DDD 270 -6.17 -2.16 16.41
DDD 271 -5.20 -2.87 16.66
DDD 272 -5.50 -0.37 18.04
DDD 273 -4.63 -1.25 18.77
DDD 274 -6.01 0.71 18.98
DDD 275 -6.85 -2.34 19.22
DDD 276 -7.29 -0.52 17.01
DDD 277 -5.00 0.06 17.29
DDD 278 -5.15 -2.05 19.08
DDD 279 -6.50 0.29 19.74
DDD 280 -5.24 1.23 19.34
DDD 281 -6.63 1.32 18.48
DDD 282 -6.82 -2.17 15.25
DDD 283 -6.43 -3.05 14.16
DDD 284 -5.88 -2.27 12.98
DDD 285 -6.46 -1.25 12.60
DDD 286 -7.63 -3.91 13.71
DDD 287 -8.19 -4.59 14.83
DDD 288 -7.19 -4.94 12.68
DDD 289 -7.60 -1.56 15.10
DDD 290 -5.73 -3.69 14.48
DDD 291 -8.32 -3.31 13.29
DDD 292 -8.83 -5.29 14.52
DDD 293 -6.27 -5.26 12.89
DDD 294 -7.83 -5.71 12.69
DDD 295 -7.20 -4.52 11.77
DDD 296 -4.77 -2.75 12.42
DDD 297 -4.14 -2.09 11.28
DDD 298 -3.53 -3.11 10.32
DDD 299 -3.03 -4.14 10.78
DDD 300 -3.07 -1.11 11.75
DDD 301 -2.71 -0.04 10.73
DDD 302 -3.88 0.90 10.48
DDD 303 -3.45 2.13 9.71
DDD 304 -2.96 1.78 8.34
DDD 305 -4.35 -3.58 12.77
DDD 306 -4.83 -1.56 10.78
DDD 307 -2.24 -1.63 11.97
DDD 308 -3.40 -0.66 12.58
DDD 309 -2.46 -0.48 9.87
DDD 310 -1.94 0.49 11.08
DDD 311 -4.26 1.18 11.36
DDD 312 -4.58 0.41 9.96
DDD 313 -2.71 2.58 10.21
DDD 314 -4.23 2.75 9.63
DDD 315 -3.34 0.90 8.07
DDD 316 -3.25 2.49 7.70
DDD 317 -1.96 1.72 8.35
DDD 318 -3.59 -2.81 9.03
DDD 319 -3.04 -3.70 8.01
DDD 320 -2.77 -2.95 6.71
DDD 321 -3.49 -1.99 6.41
DDD 322 -3.98 -4.86 7.76
DDD 323 -4.01 -1.96 8.72
DDD 324 -2.17 -4.08 8.34
DDD 325 -4.35 -4.80 6.83
DDD 326 -3.48 -5.72 7.85
DDD 327 -4.73 -4.84 8.42
DDD 328 -1.76 -3.39 5.97
DDD 329 -1.41 -2.77 4.70
DDD 330 -2.61 -2.68 3.77
DDD 331 -3.38 -3.64 3.69
DDD 332 -0.27 -3.54 4.02
DDD 333 -0.11 -3.09 2.57
DDD 334 1.05 -3.30 4.74
DDD 335 -1.22 -4.18 6.27
DDD 336 -1.07 -1.84 4.87
DDD 337 -0.48 -4.52 4.04
DDD 338 0.37 -2.22 2.55
DDD 339 0.42 -3.78 2.07
DDD 340 -1.01 -2.99 2.16
DDD 341 1.17 -4.00 5.45
DDD 342 1.80 -3.35 4.09
DDD 343 1.04 -2.40 5.17
DDD 344 -2.75 -1.55 3.09
DDD 345 -3.86 -1.35 2.16
DDD 346 -3.36 -0.87 0.80
DDD 347 -2.93 0.28 0.68
DDD 348 -4.85 -0.33 2.74
DDD 349 -6.05 -0.12 1.83
DDD 350 -7.18 -0.41 2.27
DDD 351 -5.86 0.35 0.69
DDD 352 -2.09 -0.81 3.20
DDD 353 -4.35 -2.20 2.04
DDD 354 -4.38 0.54 2.86
DDD 355 -5.17 -0.67 3.62
DDD 356 -3.42 -1.76 -0.19
DDD 357 -2.97 -1.43 -1.54
DDD 358 -3.54 -0.09 -1.99
DDD 359 -2.84 0.66 -2.68
DDD 360 -3.38 -2.52 -2.51
DDD 361 -3.78 -2.68 -0.02
DDD 362 -1.98 -1.38 -1.55
DDD 363 -2.57 -2.88 -2.97
DDD 364 -3.84 -3.26 -2.01
DDD 365 -4.01 -2.14 -3.19
DDD 366 -4.78 0.19 -1.61
DDD 367 -5.43 1.44 -1.97
DDD 368 -4.60 2.65 -1.55
DDD 369 -4.30 3.50 -2.38
DDD 370 -6.82 1.52 -1.35
DDD 371 -7.80 2.41 -2.11
DDD 372 -8.76 3.13 -1.20
DDD 373 -9.06 2.60 -0.11
DDD 374 -9.22 4.23 -1.57
DDD 375 -5.29 -0.46 -1.05
DDD 376 -5.55 1.47 -2.97
DDD 377 -6.73 1.89 -0.42
DDD 378 -7.20 0.60 -1.31
DDD 379 -8.32 1.84 -2.74
DDD 380 -7.27 3.09 -2.63
DDD 381 -4.24 2.69 -0.27
DDD 382 -3.44 3.79 0.26
DDD 383 -2.09 3.89 -0.44
DDD 384 -1.63 4.99 -0.71
DDD 385 -3.23 3.61 1.78
DDD 386 -4.50 3.53 2.44
DDD 387 -2.46 4.80 2.35
DDD 388 -4.51 1.96 0.36
DDD 389 -3.93 4.65 0.14
DDD 390 -2.70 2.78 1.94
DDD 391 -4.48 4.08 3.27
DDD 392 -2.20 4.60 3.30
DDD 393 -1.64 4.95 1.80
DDD 394 -3.04 5.61 2.32
DDD 395 -1.50 2.73 -0.73
DDD 396 -0.21 2.69 -1.41
DDD 397 -0.30 3.25 -2.82
DDD 398 0.60 3.97 -3.25
DDD 399 0.32 1.26 -1.45
DDD 400 -1.93 1.86 -0.49
DDD 401 0.46 3.23 -0.89
DDD 402 0.67 1.06 -2.37
DDD 403 1.06 1.16 -0.79
DDD 404 -0.42 0.63 -1.23
DDD 405 -1.39 2.92 -3.51
DDD 406 -1.60 3.39 -4.88
DDD 407 -1.76 4.91 -4.91
DDD 408 -1.16 5.56 -5.77
DDD 409 -2.83 2.72 -5.49
DDD 410 -3.27 3.33 -6.81
DDD 411 -4.60 2.78 -7.29
DDD 412 -4.85 1.57 -7.11
DDD 413 -5.41 3.57 -7.83
DDD 414 -2.09 2.33 -3.11
DDD 415 -0.81 3.14 -5.44
DDD 416 -3.58 2.79 -4.84
DDD 417 -2.61 1.76 -5.65
DDD 418 -2.58 3.13 -7.50
DDD 419 -3.35 4.32 -6.70
DDD 420 -2.56 5.44 -3.99
DDD 421 -2.80 6.87 -3.92
DDD 422 -1.49 7.64 -3.75
DDD 423 -1.31 8.67 -4.40
DDD 424 -3.75 7.20 -2.77
DDD 425 -4.45 8.54 -2.90
DDD 426 -3.63 9.66 -2.29
DDD 427 -3.85 9.75 -0.79
DDD 428 -2.87 10.66 -0.13
DDD 429 -3.02 4.85 -3.32
DDD 430 -3.24 7.18 -4.76
DDD 431 -3.22 7.21 -1.92
DDD 432 -4.44 6.48 -2.72
DDD 433 -5.34 8.49 -2.44
DDD 434 -4.60 8.74 -3.87
DDD 435 -3.90 10.53 -2.71
DDD 436 -2.66 9.49 -2.47
DDD 437 -3.75 8.83 -0.39
DDD 438 -4.78 10.08 -0.62
DDD 439 -2.04 10.16 0.10
DDD 440 -2.65 11.41 -0.76
DDD 441 -3.28 11.04 0.70
DDD 442 -0.62 7.13 -2.89
DDD 443 0.67 7.77 -2.64
DDD 444 1.57 7.71 -3.87
DDD 445 2.10 8.74 -4.28
DDD 446 1.37 7.12 -1.45
DDD 447 -0.82 6.29 -2.39
DDD 448 0.52 8.73 -2.40
DDD 449 0.70 6.94 -0.73
DDD 450 1.77 6.25 -1.74
DDD 451 2.08 7.72 -1.11
DDD 452 1.71 6.51 -4.43
DDD 453 2.54 6.32 -5.61
DDD 454 2.14 7.26 -6.73
DDD 455 2.93 8.12 -7.12
DDD 456 2.46 4.87 -6.09
DDD 457 3.29 4.58 -7.31
DDD 458 3.14 5.34 -8.46
DDD 459 4.23 3.56 -7.30
DDD 460 3.90 5.07 -9.58
DDD 461 4.99 3.30 -8.42
DDD 462 4.83 4.05 -9.56
DDD 463 1.25 5.71 -4.05
DDD 464 3.50 6.49 -5.38
DDD 465 1.50 4.67 -6.31
DDD 466 2.76 4.27 -5.35
DDD 467 2.47 6.08 -8.48
DDD 468 4.35 3.01 -6.48
DDD 469 3.79 5.62 -10.41
DDD 470 5.66 2.56 -8.40
DDD 471 5.39 3.86 -10.37
DDD 472 0.92 7.09 -7.23
DDD 473 0.41 7.93 -8.31
DDD 474 0.68 9.41 -8.04
DDD 475 1.13 10.12 -8.94
DDD 476 -1.10 7.71 -8.50
DDD 477 -1.48 6.26 -8.73
DDD 478 -2.99 6.09 -8.78
DDD 479 -3.51 6.21 -10.21
DDD 480 -3.52 7.62 -10.68
DDD 481 0.32 6.38 -6.88
DDD 482 0.85 7.68 -9.17
DDD 483 -1.39 8.24 -9.29
DDD 484 -1.57 8.04 -7.68
DDD 485 -1.12 5.70 -7.98
DDD 486 -1.09 5.95 -9.59
DDD 487 -3.42 6.80 -8.22
DDD 488 -3.24 5.19 -8.42
DDD 489 -4.44 5.85 -10.24
DDD 490 -2.92 5.67 -10.81
DDD 491 -3.09 8.21 -9.99
DDD 492 -3.03 7.69 -11.54
DDD 493 -4.47 7.92 -10.81
DDD 494 0.42 9.84 -6.81
DDD 495 0.64 11.22 -6.42
DDD 496 2.09 11.64 -6.65
DDD 497 2.34 12.76 -7.09
DDD 498 0.27 11.43 -4.95
DDD 499 -0.14 12.86 -4.61
DDD 500 1.05 13.73 -4.25
DDD 501 1.21 14.83 -4.78
DDD 502 1.89 13.24 -3.35
DDD 503 0.06 9.21 -6.12
DDD 504 0.05 11.82 -6.96
DDD 505 1.06 11.19 -4.39
DDD 506 -0.50 10.83 -4.73
DDD 507 -0.76 12.84 -3.84
DDD 508 -0.60 13.26 -5.40
DDD 509 2.63 13.82 -2.99
DDD 510 1.79 12.30 -3.03
DDD 511 3.02 10.73 -6.36
DDD 512 4.44 11.00 -6.53
DDD 513 4.80 11.14 -8.01
DDD 514 5.47 12.09 -8.38
DDD 515 5.28 9.89 -5.89
DDD 516 6.62 10.36 -5.37
DDD 517 6.72 11.52 -4.61
DDD 518 7.78 9.65 -5.65
DDD 519 7.94 11.96 -4.13
DDD 520 9.01 10.08 -5.18
DDD 521 9.08 11.24 -4.42
DDD 522 10.30 11.67 -3.94
DDD 523 2.76 9.83 -6.00
DDD 524 4.68 11.85 -6.07
DDD 525 5.44 9.18 -6.58
DDD 526 4.76 9.51 -5.13
DDD 527 5.89 12.04 -4.40
DDD 528 7.72 8.82 -6.20
DDD 529 7.99 12.79 -3.58
DDD 530 9.84 9.56 -5.39
DDD 531 10.30 11.63 -2.94
DDD 532 4.34 10.18 -8.81
DDD 533 4.61 10.19 -10.25
DDD 534 4.36 11.58 -10.84
DDD 535 5.14 12.02 -11.68
DDD 536 3.75 9.16 -10.96
DDD 537 3.79 9.43 -8.45
DDD 538 5.56 9.94 -10.41
DDD 539 4.13 8.25 -10.81
DDD 540 2.82 9.19 -10.59
DDD 541 3.73 9.36 -11.94
DDD 542 3.28 12.22 -10.41
DDD 543 2.93 13.55 -10.90
DDD 544 4.02 14.56 -10.57
DDD 545 4.36 15.38 -11.43
DDD 546 1.60 14.01 -10.30
DDD 547 0.61 14.46 -11.36
DDD 548 -0.45 13.85 -11.53
DDD 549 0.95 15.53 -12.07
DDD 550 2.68 11.80 -9.72
DDD 551 2.81 13.51 -11.89
DDD 552 1.77 14.77 -9.68
DDD 553 1.20 13.24 -9.79
DDD 554 1.44 15.41 -12.93
DDD 555 0.72 16.44 -11.74
DDD 556 4.54 14.49 -9.35
DDD 557 5.60 15.40 -8.92
DDD 558 6.91 15.12 -9.64
DDD 559 7.68 16.04 -9.87
DDD 560 5.80 15.29 -7.40
DDD 561 4.50 15.31 -6.63
DDD 562 4.09 14.24 -6.13
DDD 563 3.88 16.39 -6.54
DDD 564 4.23 13.80 -8.70
DDD 565 5.32 16.34 -9.11
DDD 566 6.36 16.07 -7.11
DDD 567 6.28 14.44 -7.21
DDD 568 7.13 13.85 -9.98
DDD 569 8.34 13.45 -10.68
DDD 570 8.28 13.82 -12.16
DDD 571 9.33 14.04 -12.77
DDD 572 8.57 11.94 -10.53
DDD 573 9.41 11.59 -9.31
DDD 574 9.21 12.14 -8.23
DDD 575 10.36 10.68 -9.49
DDD 576 6.46 13.14 -9.77
DDD 577 9.13 13.90 -10.27
DDD 578 9.04 11.61 -11.35
DDD 579 7.68 11.49 -10.45
DDD 580 10.14 9.81 -9.93
DDD 581 11.30 10.87 -9.19
DDD 582 7.07 13.88 -12.70
DDD 583 6.90 14.23 -14.10
DDD 584 6.46 13.05 -14.94
DDD 585 6.38 13.17 -16.16
DDD 586 6.25 13.69 -12.15
DDD 587 7.77 14.57 -14.46
DDD 588 6.20 14.94 -14.17
DDD 589 6.19 11.92 -14.28
DDD 590 5.76 10.71 -14.98
DDD 591 4.33 10.35 -14.61
DDD 592 3.95 10.46 -13.45
DDD 593 6.71 9.54 -14.65
DDD 594 6.14 8.24 -15.19
DDD 595 8.08 9.76 -15.27
DDD 596 6.28 11.88 -13.29
DDD 597 5.82 10.86 -15.97
DDD 598 6.81 9.47 -13.66
DDD 599 6.86 7.55 -15.22
DDD 600 5.40 7.92 -14.60
DDD 601 5.78 8.39 -16.12
DDD 602 8.08 9.42 -16.21
DDD 603 8.28 10.74 -15.28
DDD 604 8.77 9.28 -14.74
DDD 605 3.56 9.91 -15.61
DDD 606 2.17 9.53 -15.40
DDD 607 1.96 8.05 -15.68
DDD 608 1.81 7.67 -16.84
DDD 609 1.25 10.37 -16.28
DDD 610 -0.22 10.01 -16.10
DDD 611 -1.07 10.90 -16.25
DDD 612 -0.50 8.83 -15.80
DDD 613 3.93 9.84 -16.54
DDD 614 1.92 9.71 -14.45
DDD 615 1.50 10.22 -17.24
DDD 616 1.37 11.33 -16.05
DDD 617 1.95 7.24 -14.63
DDD 618 1.76 5.81 -14.79
DDD 619 2.46 5.01 -13.71
DDD 620 3.41 5.50 -13.11
DDD 621 2.08 7.60 -13.70
DDD 622 2.12 5.53 -15.67
DDD 623 0.78 5.61 -14.74
DDD 624 1.98 3.79 -13.48
DDD 625 2.56 2.92 -12.47
DDD 626 3.96 2.46 -12.87
DDD 627 4.21 2.28 -14.07
DDD 628 1.66 1.69 -12.22
DDD 629 0.27 2.13 -11.78
DDD 630 1.52 0.88 -13.50
DDD 631 1.20 3.44 -13.99
DDD 632 2.63 3.41 -11.60
DDD 633 2.07 1.12 -11.51
DDD 634 -0.37 1.38 -11.91
DDD 635 0.30 2.38 -10.81
DDD 636 -0.02 2.92 -12.32
DDD 637 1.02 1.41 -14.18
DDD 638 2.42 0.65 -13.85
DDD 639 1.02 0.03 -13.30
DDD 640 4.83 2.28 -11.89
DDD 641 6.20 1.85 -12.14
DDD 642 6.39 0.38 -11.76
DDD 643 6.08 0.00 -10.63
DDD 644 7.19 2.72 -11.37
DDD 645 7.49 4.03 -12.04
DDD 646 8.10 4.22 -13.32
DDD 647 7.22 5.28 -11.55
DDD 648 8.21 5.56 -13.60
DDD 649 7.67 6.20 -12.52
DDD 650 6.64 5.76 -10.38
DDD 651 7.56 7.58 -12.34
DDD 652 6.53 7.12 -10.20
DDD 653 6.98 8.01 -11.18
DDD 654 4.56 2.44 -10.94
DDD 655 6.41 1.96 -13.11
DDD 656 8.05 2.21 -11.27
DDD 657 6.81 2.91 -10.46
DDD 658 8.41 3.47 -13.91
DDD 659 8.60 5.97 -14.42
DDD 660 6.32 5.12 -9.68
DDD 661 6.88 9.00 -11.02
DDD 662 7.88 8.22 -13.04
DDD 663 6.12 7.48 -9.37
DDD 664 6.90 -0.40 -12.70
DDD 665 7.14 -1.82 -12.47
DDD 666 8.63 -2.13 -12.39
DDD 667 9.33 -1.96 -13.39
DDD 668 6.48 -2.67 -13.58
DDD 669 7.17 -2.46 -14.81
DDD 670 5.02 -2.27 -13.76
DDD 671 7.14 -0.04 -13.60
DDD 672 6.71 -2.10 -11.60
DDD 673 6.52 -3.63 -13.31
DDD 674 7.01 -1.53 -15.14
DDD 675 4.71 -2.57 -14.66
DDD 676 4.47 -2.71 -13.05
DDD 677 4.94 -1.28 -13.68
DDD 678 9.08 -2.57 -11.23
DDD 679 10.48 -2.90 -11.02
DDD 680 10.67 -4.41 -10.82
DDD 681 9.95 -5.01 -10.03
DDD 682 11.04 -2.15 -9.82
DDD 683 10.15 -1.02 -9.33
DDD 684 9.33 -1.20 -8.23
DDD 685 10.15 0.21 -9.98
DDD 686 8.51 -0.18 -7.78
DDD 687 9.34 1.24 -9.54
DDD 688 8.52 1.04 -8.43
DDD 689 7.71 2.06 -7.99
DDD 690 8.46 -2.69 -10.45
DDD 691 11.01 -2.62 -11.82
DDD 692 11.93 -1.76 -10.07
DDD 693 11.17 -2.80 -9.07
DDD 694 9.32 -2.08 -7.75
DDD 695 10.74 0.35 -10.77
DDD 696 7.92 -0.32 -6.98
DDD 697 9.34 2.12 -10.01
DDD 698 8.19 2.93 -8.07
DDD 699 11.64 -4.97 -11.54
DDD 700 11.92 -6.40 -11.45
DDD 701 12.88 -6.70 -10.30
DDD 702 13.91 -7.34 -10.52
DDD 703 12.51 -6.92 -12.77
DDD 704 11.57 -6.72 -13.94
DDD 705 11.22 -5.55 -14.23
DDD 706 11.18 -7.72 -14.57
DDD 707 12.19 -4.43 -12.17
DDD 708 11.07 -6.90 -11.29
DDD 709 12.69 -7.90 -12.67
DDD 710 13.36 -6.43 -12.95
DDD 711 12.54 -6.22 -9.11
DDD 712 13.37 -6.43 -7.93
DDD 713 13.45 -7.91 -7.57
DDD 714 14.49 -8.37 -7.10
DDD 715 12.83 -5.64 -6.74
DDD 716 13.46 -6.06 -5.43
DDD 717 12.71 -6.50 -4.53
DDD 718 14.69 -5.95 -5.29
DDD 719 11.69 -5.70 -8.99
DDD 720 14.30 -6.10 -8.11
DDD 721 11.84 -5.77 -6.69
DDD 722 13.03 -4.67 -6.90
DDD 723 12.35 -8.63 -7.79
DDD 724 12.30 -10.06 -7.49
DDD 725 13.46 -10.80 -8.13
DDD 726 14.12 -11.59 -7.45
DDD 727 10.98 -10.65 -7.97
DDD 728 11.53 -8.20 -8.18
DDD 729 12.33 -10.19 -6.50
DDD 730 10.23 -10.04 -7.72
DDD 731 11.00 -10.76 -8.96
DDD 732 10.84 -11.54 -7.54
DDD 733 13.69 -10.54 -9.41
DDD 734 14.78 -11.19 -10.14
DDD 735 15.91 -10.20 -10.44
DDD 736 15.64 -9.11 -10.93
DDD 737 14.26 -11.80 -11.46
DDD 738 13.85 -10.75 -12.34
DDD 739 13.07 -12.71 -11.19
DDD 740 13.12 -9.89 -9.91
DDD 741 15.15 -11.94 -9.59
DDD 742 14.99 -12.33 -11.87
DDD 743 14.66 -10.29 -12.71
DDD 744 13.03 -13.41 -11.90
DDD 745 13.18 -13.14 -10.29
DDD 746 12.23 -12.17 -11.19
DDD 747 17.14 -10.61 -10.13
DDD 748 18.30 -9.77 -10.36
DDD 749 19.34 -10.49 -11.21
DDD 750 19.86 -11.52 -10.79
DDD 751 18.92 -9.33 -9.03
DDD 752 18.19 -8.20 -8.34
DDD 753 18.30 -6.91 -9.13
DDD 754 17.16 -6.77 -10.13
DDD 755 16.32 -5.57 -9.85
DDD 756 17.29 -11.51 -9.73
DDD 757 18.02 -8.93 -10.83
DDD 758 19.86 -9.04 -9.20
DDD 759 18.93 -10.12 -8.42
DDD 760 18.58 -8.06 -7.43
DDD 761 17.22 -8.44 -8.25
DDD 762 19.16 -6.90 -9.63
DDD 763 18.27 -6.13 -8.50
DDD 764 16.58 -7.59 -10.07
DDD 765 17.54 -6.70 -11.05
DDD 766 16.84 -4.74 -10.07
DDD 767 15.49 -5.60 -10.41
DDD 768 16.06 -5.56 -8.88
DDD 769 19.62 -9.93 -12.38
DDD 770 20.60 -10.52 -13.29
DDD 771 21.84 -9.63 -13.42
DDD 772 21.72 -8.41 -13.34
DDD 773 19.98 -10.75 -14.68
DDD 774 18.69 -11.36 -14.53
DDD 775 20.86 -11.67 -15.52
DDD 776 19.17 -9.09 -12.67
DDD 777 20.88 -11.41 -12.95
DDD 778 19.89 -9.87 -15.15
DDD 779 18.03 -10.67 -14.23
DDD 780 21.31 -11.13 -16.24
DDD 781 21.55 -12.08 -14.93
DDD 782 20.30 -12.38 -15.93
DDD 783 22.99 -10.26 -13.62
DDD 784 24.25 -9.53 -13.76
DDD 785 24.89 -9.80 -15.12
DDD 786 24.76 -10.91 -15.64
DDD 787 25.21 -9.91 -12.64
DDD 788 24.60 -9.88 -11.27
DDD 789 25.06 -8.99 -10.31
DDD 790 23.56 -10.73 -10.94
DDD 791 24.49 -8.96 -9.05
DDD 792 22.99 -10.70 -9.68
DDD 793 23.46 -9.82 -8.74
DDD 794 23.02 -11.26 -13.68
DDD 795 24.07 -8.55 -13.68
DDD 796 25.98 -9.27 -12.66
DDD 797 25.55 -10.84 -12.81
DDD 798 25.81 -8.37 -10.53
DDD 799 23.22 -11.37 -11.62
DDD 800 24.84 -8.31 -8.37
DDD 801 22.24 -11.32 -9.46
DDD 802 23.05 -9.79 -7.82
DDD 803 25.57 -8.79 -15.65
DDD 804 26.24 -8.92 -16.94
DDD 805 27.75 -8.98 -16.78
DDD 806 28.34 -8.04 -16.25
DDD 807 25.86 -7.74 -17.86
DDD 808 26.63 -7.81 -19.07
DDD 809 26.13 -6.42 -17.17
DDD 810 25.65 -7.92 -15.17
DDD 811 25.93 -9.76 -17.40
DDD 812 24.88 -7.81 -18.08
DDD 813 26.04 -8.05 -19.83
DDD 814 27.06 -6.42 -16.80
DDD 815 26.04 -5.67 -17.83
DDD 816 25.47 -6.29 -16.43
DDD 817 28.35 -10.08 -17.23
DDD 818 29.79 -10.27 -17.14
DDD 819 30.33 -11.05 -18.33
DDD 820 29.81 -12.13 -18.63
DDD 821 30.16 -10.99 -15.83
DDD 822 30.13 -10.01 -14.66
DDD 823 29.17 -12.11 -15.54
DDD 824 27.81 -10.81 -17.65
DDD 825 30.24 -9.37 -17.11
DDD 826 31.08 -11.38 -15.91
DDD 827 31.06 -9.90 -14.29
DDD 828 29.79 -9.13 -14.97
DDD 829 29.53 -10.37 -13.94
DDD 830 28.32 -11.72 -15.19
DDD 831 28.99 -12.61 -16.38
DDD 832 29.56 -12.73 -14.86
DDD 833 31.35 -10.50 -18.98
DDD 834 31.95 -11.15 -20.14
DDD 835 33.42 -10.78 -20.28
DDD 836 33.75 -9.59 -20.24
DDD 837 31.19 -10.78 -21.43
DDD 838 31.87 -11.33 -22.56
DDD 839 31.12 -9.26 -21.58
DDD 840 31.72 -9.63 -18.69
DDD 841 31.88 -12.15 -20.04
DDD 842 30.26 -11.14 -21.37
DDD 843 31.56 -12.27 -22.71
DDD 844 30.99 -8.84 -20.68
DDD 845 31.97 -8.93 -21.99
DDD 846 30.35 -9.03 -22.17
DDD 847 34.27 -11.79 -20.42
DDD 848 35.71 -11.57 -20.56
DDD 849 36.01 -10.62 -21.72
DDD 850 35.10 -10.42 -22.53
DDD 851 36.44 -12.89 -20.78
DDD 852 37.64 -13.09 -19.88
DDD 853 37.26 -13.62 -18.51
DDD 854 36.14 -13.33 -18.05
DDD 855 38.10 -14.32 -17.89
DDD 856 33.94 -12.73 -20.44
DDD 857 36.07 -11.17 -19.72
DDD 858 36.75 -12.93 -21.73
DDD 859 35.79 -13.64 -20.61
DDD 860 38.11 -12.22 -19.77
DDD 861 38.26 -13.75 -20.31
DDD 862 37.13 -10.12 -21.75
END

EOF
